\ Model Hydrovalley_copy
\ LP format - for model browsing. Use MPS format to capture full model detail.
Minimize
 
Subject To
 AR_model_1[0]: inflow[0,1] - 0.541013086491916 inflow0[0,1]
   + 0.2277425926103031 inflow0[0,2] - innovations[0] = 0
Bounds
 -infinity <= inflow[0,1] <= 3.883370149642889
 inflow0[0,1] >= 15.82192072596131
 -infinity <= inflow0[0,2] <= 6.422243032264402
End
